* #variable= 749 #constraint= 384 
+1 x723 = 0 ;
+1 x74 -1 x218 = 0 ;
+1 x218 -1 x322 = 0 ;
+1 x322 -1 x400 = 0 ;
+1 x400 -1 x461 = 0 ;
+1 x461 -1 x511 = 0 ;
+1 x555 +2 x567 +4 x579 +8 x591 +16 x603 +32 x615 +64 x627 +128 x639 +256 x651 +512 x663 +1024 x675 +2048 x687 +2 x556 +4 x568 +8 x580 +16 x592 +32 x604 +64 x616 +128 x628 +256 x640 +512 x652 +1024 x664 +2048 x676 +4096 x688 +4 x557 +8 x569 +16 x581 +32 x593 +64 x605 +128 x617 +256 x629 +512 x641 +1024 x653 +2048 x665 +4096 x677 +8192 x689 +8 x558 +16 x570 +32 x582 +64 x594 +128 x606 +256 x618 +512 x630 +1024 x642 +2048 x654 +4096 x666 +8192 x678 +16384 x690 +16 x559 +32 x571 +64 x583 +128 x595 +256 x607 +512 x619 +1024 x631 +2048 x643 +4096 x655 +8192 x667 +16384 x679 +32768 x691 +32 x560 +64 x572 +128 x584 +256 x596 +512 x608 +1024 x620 +2048 x632 +4096 x644 +8192 x656 +16384 x668 +32768 x680 +65536 x692 +64 x561 +128 x573 +256 x585 +512 x597 +1024 x609 +2048 x621 +4096 x633 +8192 x645 +16384 x657 +32768 x669 +65536 x681 +131072 x693 +128 x562 +256 x574 +512 x586 +1024 x598 +2048 x610 +4096 x622 +8192 x634 +16384 x646 +32768 x658 +65536 x670 +131072 x682 +262144 x694 +256 x563 +512 x575 +1024 x587 +2048 x599 +4096 x611 +8192 x623 +16384 x635 +32768 x647 +65536 x659 +131072 x671 +262144 x683 +524288 x695 +512 x564 +1024 x576 +2048 x588 +4096 x600 +8192 x612 +16384 x624 +32768 x636 +65536 x648 +131072 x660 +262144 x672 +524288 x684 +1048576 x696 +1024 x565 +2048 x577 +4096 x589 +8192 x601 +16384 x613 +32768 x625 +65536 x637 +131072 x649 +262144 x661 +524288 x673 +1048576 x685 +2097152 x697 +2048 x566 +4096 x578 +8192 x590 +16384 x602 +32768 x614 +65536 x626 +131072 x638 +262144 x650 +524288 x662 +1048576 x674 +2097152 x686 +4194304 x698 -1 x26 -2 x27 -4 x28 -8 x29 -16 x30 -32 x31 -64 x32 -128 x33 -256 x34 -512 x35 -1024 x36 -2048 x37 -4096 x38 -8192 x39 -16384 x40 -32768 x41 -65536 x42 -131072 x43 -262144 x44 -524288 x45 -1048576 x46 -2097152 x47 -4194304 x48 -8388608 x49 = 0; 
+1 x26 -1 x1 +2 x27 -2 x2 +4 x28 -4 x3 +8 x29 -8 x4 +16 x30 -16 x5 +32 x31 -32 x6 +64 x32 -64 x7 +128 x33 -128 x8 +256 x34 -256 x9 +512 x35 -512 x10 +1024 x36 -1024 x11 +2048 x37 -2048 x12 +4096 x38 -4096 x13 +8192 x39 -8192 x14 +16384 x40 -16384 x15 +32768 x41 -32768 x16 +65536 x42 -65536 x17 +131072 x43 -131072 x18 +262144 x44 -262144 x19 +524288 x45 -524288 x20 +1048576 x46 -1048576 x21 +2097152 x47 -2097152 x22 +4194304 x48 -4194304 x23 +8388608 x49 -8388608 x24 >= 1 ;
+1 x724 = 0 ;
+2 x219 +1 x220 -1 x76 -1 x75 = 0 ;
+1 x220 -1 x323 = 0 ;
+1 x323 -1 x401 = 0 ;
+1 x401 -1 x462 = 0 ;
+1 x462 -1 x512 = 0 ;
+1 x725 = 0 ;
+2 x221 +1 x222 -1 x79 -1 x77 -1 x78 = 0 ;
+2 x324 +1 x325 -1 x219 -1 x222 = 0 ;
+1 x325 -1 x402 = 0 ;
+1 x402 -1 x463 = 0 ;
+1 x463 -1 x513 = 0 ;
+1 x726 = 0 ;
+2 x223 +1 x224 -1 x82 -1 x80 -1 x81 = 0 ;
+1 x83 -1 x262 = 0 ;
+2 x326 +1 x327 -1 x262 -1 x224 -1 x221 = 0 ;
+2 x403 +1 x404 -1 x324 -1 x327 = 0 ;
+1 x404 -1 x464 = 0 ;
+1 x464 -1 x514 = 0 ;
+1 x727 = 0 ;
+2 x225 +1 x226 -1 x86 -1 x84 -1 x85 = 0 ;
+2 x263 +1 x264 -1 x88 -1 x87 = 0 ;
+2 x328 +1 x329 -1 x264 -1 x226 -1 x223 = 0 ;
+2 x405 +1 x406 -1 x326 -1 x329 = 0 ;
+2 x465 +1 x466 -1 x403 -1 x406 = 0 ;
+1 x466 -1 x515 = 0 ;
+1 x728 = 0 ;
+2 x227 +1 x228 -1 x91 -1 x89 -1 x90 = 0 ;
+2 x265 +1 x266 -1 x94 -1 x92 -1 x93 = 0 ;
+2 x330 +1 x331 -1 x266 -1 x228 -1 x225 = 0 ;
+1 x263 -1 x366 = 0 ;
+2 x407 +1 x408 -1 x366 -1 x331 -1 x328 = 0 ;
+2 x467 +1 x468 -1 x405 -1 x408 = 0 ;
+2 x516 +1 x517 -1 x465 -1 x468 = 0 ;
+1 x729 = 0 ;
+2 x229 +1 x230 -1 x97 -1 x95 -1 x96 = 0 ;
+2 x267 +1 x268 -1 x100 -1 x98 -1 x99 = 0 ;
+1 x101 -1 x294 = 0 ;
+2 x332 +1 x333 -1 x268 -1 x230 -1 x227 = 0 ;
+2 x367 +1 x368 -1 x294 -1 x265 = 0 ;
+2 x409 +1 x410 -1 x368 -1 x333 -1 x330 = 0 ;
+2 x469 +1 x470 -1 x407 -1 x410 = 0 ;
+2 x518 +1 x519 -1 x467 -1 x470 = 0 ;
+1 x730 = 0 ;
+2 x231 +1 x232 -1 x104 -1 x102 -1 x103 = 0 ;
+2 x269 +1 x270 -1 x107 -1 x105 -1 x106 = 0 ;
+2 x295 +1 x296 -1 x109 -1 x108 = 0 ;
+2 x334 +1 x335 -1 x270 -1 x232 -1 x229 = 0 ;
+2 x369 +1 x370 -1 x296 -1 x267 = 0 ;
+2 x411 +1 x412 -1 x370 -1 x335 -1 x332 = 0 ;
+1 x367 -1 x444 = 0 ;
+2 x471 +1 x472 -1 x444 -1 x412 -1 x409 = 0 ;
+2 x520 +1 x521 -1 x469 -1 x472 = 0 ;
+1 x731 = 0 ;
+2 x233 +1 x234 -1 x112 -1 x110 -1 x111 = 0 ;
+2 x271 +1 x272 -1 x115 -1 x113 -1 x114 = 0 ;
+2 x297 +1 x298 -1 x118 -1 x116 -1 x117 = 0 ;
+2 x336 +1 x337 -1 x272 -1 x234 -1 x231 = 0 ;
+2 x371 +1 x372 -1 x295 -1 x269 -1 x298 = 0 ;
+2 x413 +1 x414 -1 x372 -1 x337 -1 x334 = 0 ;
+1 x369 -1 x445 = 0 ;
+2 x473 +1 x474 -1 x445 -1 x414 -1 x411 = 0 ;
+2 x522 +1 x523 -1 x471 -1 x474 = 0 ;
+1 x732 = 0 ;
+2 x235 +1 x236 -1 x121 -1 x119 -1 x120 = 0 ;
+2 x273 +1 x274 -1 x124 -1 x122 -1 x123 = 0 ;
+2 x299 +1 x300 -1 x127 -1 x125 -1 x126 = 0 ;
+1 x128 -1 x314 = 0 ;
+2 x338 +1 x339 -1 x274 -1 x236 -1 x233 = 0 ;
+2 x373 +1 x374 -1 x297 -1 x271 -1 x300 = 0 ;
+1 x314 -1 x392 = 0 ;
+2 x415 +1 x416 -1 x374 -1 x339 -1 x336 = 0 ;
+2 x446 +1 x447 -1 x392 -1 x371 = 0 ;
+2 x475 +1 x476 -1 x447 -1 x416 -1 x413 = 0 ;
+2 x524 +1 x525 -1 x473 -1 x476 = 0 ;
+1 x733 = 0 ;
+2 x237 +1 x238 -1 x131 -1 x129 -1 x130 = 0 ;
+2 x275 +1 x276 -1 x134 -1 x132 -1 x133 = 0 ;
+2 x301 +1 x302 -1 x137 -1 x135 -1 x136 = 0 ;
+2 x315 +1 x316 -1 x139 -1 x138 = 0 ;
+2 x340 +1 x341 -1 x276 -1 x238 -1 x235 = 0 ;
+2 x375 +1 x376 -1 x299 -1 x273 -1 x302 = 0 ;
+1 x316 -1 x393 = 0 ;
+2 x417 +1 x418 -1 x376 -1 x341 -1 x338 = 0 ;
+2 x448 +1 x449 -1 x393 -1 x373 = 0 ;
+2 x477 +1 x478 -1 x449 -1 x418 -1 x415 = 0 ;
+1 x446 -1 x505 = 0 ;
+2 x526 +1 x527 -1 x505 -1 x478 -1 x475 = 0 ;
+1 x734 = 0 ;
+2 x239 +1 x240 -1 x142 -1 x140 -1 x141 = 0 ;
+2 x277 +1 x278 -1 x145 -1 x143 -1 x144 = 0 ;
+2 x303 +1 x304 -1 x148 -1 x146 -1 x147 = 0 ;
+2 x317 +1 x318 -1 x151 -1 x149 -1 x150 = 0 ;
+2 x342 +1 x343 -1 x278 -1 x240 -1 x237 = 0 ;
+2 x377 +1 x378 -1 x301 -1 x275 -1 x304 = 0 ;
+2 x394 +1 x395 -1 x315 -1 x318 = 0 ;
+2 x419 +1 x420 -1 x378 -1 x343 -1 x340 = 0 ;
+2 x450 +1 x451 -1 x395 -1 x375 = 0 ;
+2 x479 +1 x480 -1 x451 -1 x420 -1 x417 = 0 ;
+1 x448 -1 x506 = 0 ;
+2 x528 +1 x529 -1 x506 -1 x480 -1 x477 = 0 ;
+1 x735 = 0 ;
+2 x241 +1 x242 -1 x154 -1 x152 -1 x153 = 0 ;
+2 x279 +1 x280 -1 x157 -1 x155 -1 x156 = 0 ;
+2 x305 +1 x306 -1 x160 -1 x158 -1 x159 = 0 ;
+2 x319 +1 x320 -1 x162 -1 x161 = 0 ;
+2 x344 +1 x345 -1 x280 -1 x242 -1 x239 = 0 ;
+2 x379 +1 x380 -1 x303 -1 x277 -1 x306 = 0 ;
+2 x396 +1 x397 -1 x317 -1 x320 = 0 ;
+2 x421 +1 x422 -1 x380 -1 x345 -1 x342 = 0 ;
+2 x452 +1 x453 -1 x394 -1 x377 -1 x397 = 0 ;
+2 x481 +1 x482 -1 x453 -1 x422 -1 x419 = 0 ;
+1 x450 -1 x507 = 0 ;
+2 x530 +1 x531 -1 x507 -1 x482 -1 x479 = 0 ;
+1 x736 = 0 ;
+2 x243 +1 x244 -1 x165 -1 x163 -1 x164 = 0 ;
+2 x281 +1 x282 -1 x168 -1 x166 -1 x167 = 0 ;
+2 x307 +1 x308 -1 x171 -1 x169 -1 x170 = 0 ;
+1 x172 -1 x321 = 0 ;
+2 x346 +1 x347 -1 x282 -1 x244 -1 x241 = 0 ;
+2 x381 +1 x382 -1 x305 -1 x279 -1 x308 = 0 ;
+2 x398 +1 x399 -1 x319 -1 x321 = 0 ;
+2 x423 +1 x424 -1 x382 -1 x347 -1 x344 = 0 ;
+2 x454 +1 x455 -1 x396 -1 x379 -1 x399 = 0 ;
+2 x483 +1 x484 -1 x455 -1 x424 -1 x421 = 0 ;
+1 x452 -1 x508 = 0 ;
+2 x532 +1 x533 -1 x508 -1 x484 -1 x481 = 0 ;
+1 x737 = 0 ;
+2 x245 +1 x246 -1 x175 -1 x173 -1 x174 = 0 ;
+2 x283 +1 x284 -1 x178 -1 x176 -1 x177 = 0 ;
+2 x309 +1 x310 -1 x181 -1 x179 -1 x180 = 0 ;
+2 x348 +1 x349 -1 x284 -1 x246 -1 x243 = 0 ;
+2 x383 +1 x384 -1 x307 -1 x281 -1 x310 = 0 ;
+2 x425 +1 x426 -1 x384 -1 x349 -1 x346 = 0 ;
+2 x456 +1 x457 -1 x398 -1 x381 = 0 ;
+2 x485 +1 x486 -1 x457 -1 x426 -1 x423 = 0 ;
+1 x454 -1 x509 = 0 ;
+2 x534 +1 x535 -1 x509 -1 x486 -1 x483 = 0 ;
+1 x738 = 0 ;
+2 x247 +1 x248 -1 x184 -1 x182 -1 x183 = 0 ;
+2 x285 +1 x286 -1 x187 -1 x185 -1 x186 = 0 ;
+2 x311 +1 x312 -1 x189 -1 x188 = 0 ;
+2 x350 +1 x351 -1 x286 -1 x248 -1 x245 = 0 ;
+2 x385 +1 x386 -1 x309 -1 x283 -1 x312 = 0 ;
+2 x427 +1 x428 -1 x386 -1 x351 -1 x348 = 0 ;
+1 x383 -1 x458 = 0 ;
+2 x487 +1 x488 -1 x458 -1 x428 -1 x425 = 0 ;
+1 x456 -1 x510 = 0 ;
+2 x536 +1 x537 -1 x510 -1 x488 -1 x485 = 0 ;
+1 x739 = 0 ;
+2 x249 +1 x250 -1 x192 -1 x190 -1 x191 = 0 ;
+2 x287 +1 x288 -1 x195 -1 x193 -1 x194 = 0 ;
+1 x196 -1 x313 = 0 ;
+2 x352 +1 x353 -1 x288 -1 x250 -1 x247 = 0 ;
+2 x387 +1 x388 -1 x311 -1 x285 -1 x313 = 0 ;
+2 x429 +1 x430 -1 x388 -1 x353 -1 x350 = 0 ;
+1 x385 -1 x459 = 0 ;
+2 x489 +1 x490 -1 x459 -1 x430 -1 x427 = 0 ;
+2 x538 +1 x539 -1 x487 -1 x490 = 0 ;
+1 x740 = 0 ;
+2 x251 +1 x252 -1 x199 -1 x197 -1 x198 = 0 ;
+2 x289 +1 x290 -1 x202 -1 x200 -1 x201 = 0 ;
+2 x354 +1 x355 -1 x290 -1 x252 -1 x249 = 0 ;
+1 x287 -1 x389 = 0 ;
+2 x431 +1 x432 -1 x389 -1 x355 -1 x352 = 0 ;
+1 x387 -1 x460 = 0 ;
+2 x491 +1 x492 -1 x460 -1 x432 -1 x429 = 0 ;
+2 x540 +1 x541 -1 x489 -1 x492 = 0 ;
+1 x741 = 0 ;
+2 x253 +1 x254 -1 x205 -1 x203 -1 x204 = 0 ;
+2 x291 +1 x292 -1 x207 -1 x206 = 0 ;
+2 x356 +1 x357 -1 x292 -1 x254 -1 x251 = 0 ;
+1 x289 -1 x390 = 0 ;
+2 x433 +1 x434 -1 x390 -1 x357 -1 x354 = 0 ;
+2 x493 +1 x494 -1 x431 -1 x434 = 0 ;
+2 x542 +1 x543 -1 x491 -1 x494 = 0 ;
+1 x742 = 0 ;
+2 x255 +1 x256 -1 x210 -1 x208 -1 x209 = 0 ;
+1 x211 -1 x293 = 0 ;
+2 x358 +1 x359 -1 x293 -1 x256 -1 x253 = 0 ;
+1 x291 -1 x391 = 0 ;
+2 x435 +1 x436 -1 x391 -1 x359 -1 x356 = 0 ;
+2 x495 +1 x496 -1 x433 -1 x436 = 0 ;
+2 x544 +1 x545 -1 x493 -1 x496 = 0 ;
+1 x743 = 0 ;
+2 x257 +1 x258 -1 x214 -1 x212 -1 x213 = 0 ;
+2 x360 +1 x361 -1 x255 -1 x258 = 0 ;
+2 x437 +1 x438 -1 x358 -1 x361 = 0 ;
+2 x497 +1 x498 -1 x435 -1 x438 = 0 ;
+2 x546 +1 x547 -1 x495 -1 x498 = 0 ;
+1 x744 = 0 ;
+2 x259 +1 x260 -1 x216 -1 x215 = 0 ;
+2 x362 +1 x363 -1 x257 -1 x260 = 0 ;
+2 x439 +1 x440 -1 x360 -1 x363 = 0 ;
+2 x499 +1 x500 -1 x437 -1 x440 = 0 ;
+2 x548 +1 x549 -1 x497 -1 x500 = 0 ;
+1 x745 = 0 ;
+1 x217 -1 x261 = 0 ;
+2 x364 +1 x365 -1 x259 -1 x261 = 0 ;
+2 x441 +1 x442 -1 x362 -1 x365 = 0 ;
+2 x501 +1 x502 -1 x439 -1 x442 = 0 ;
+2 x550 +1 x551 -1 x499 -1 x502 = 0 ;
+1 x746 = 0 ;
+1 x364 -1 x443 = 0 ;
+2 x503 +1 x504 -1 x441 -1 x443 = 0 ;
+2 x552 +1 x553 -1 x501 -1 x504 = 0 ;
+1 x503 -1 x554 = 0 ;
+1 x555 -1 x74 = 0 ;
+1 x556 -1 x76 = 0 ;
+1 x557 -1 x79 = 0 ;
+1 x558 -1 x83 = 0 ;
+1 x559 -1 x88 = 0 ;
+1 x560 -1 x94 = 0 ;
+1 x561 -1 x101 = 0 ;
+1 x562 -1 x109 = 0 ;
+1 x563 -1 x118 = 0 ;
+1 x564 -1 x128 = 0 ;
+1 x565 -1 x139 = 0 ;
+1 x566 -1 x151 = 0 ;
+1 x567 -1 x75 = 0 ;
+1 x568 -1 x78 = 0 ;
+1 x569 -1 x82 = 0 ;
+1 x570 -1 x87 = 0 ;
+1 x571 -1 x93 = 0 ;
+1 x572 -1 x100 = 0 ;
+1 x573 -1 x108 = 0 ;
+1 x574 -1 x117 = 0 ;
+1 x575 -1 x127 = 0 ;
+1 x576 -1 x138 = 0 ;
+1 x577 -1 x150 = 0 ;
+1 x578 -1 x162 = 0 ;
+1 x579 -1 x77 = 0 ;
+1 x580 -1 x81 = 0 ;
+1 x581 -1 x86 = 0 ;
+1 x582 -1 x92 = 0 ;
+1 x583 -1 x99 = 0 ;
+1 x584 -1 x107 = 0 ;
+1 x585 -1 x116 = 0 ;
+1 x586 -1 x126 = 0 ;
+1 x587 -1 x137 = 0 ;
+1 x588 -1 x149 = 0 ;
+1 x589 -1 x161 = 0 ;
+1 x590 -1 x172 = 0 ;
+1 x591 -1 x80 = 0 ;
+1 x592 -1 x85 = 0 ;
+1 x593 -1 x91 = 0 ;
+1 x594 -1 x98 = 0 ;
+1 x595 -1 x106 = 0 ;
+1 x596 -1 x115 = 0 ;
+1 x597 -1 x125 = 0 ;
+1 x598 -1 x136 = 0 ;
+1 x599 -1 x148 = 0 ;
+1 x600 -1 x160 = 0 ;
+1 x601 -1 x171 = 0 ;
+1 x602 -1 x181 = 0 ;
+1 x603 -1 x84 = 0 ;
+1 x604 -1 x90 = 0 ;
+1 x605 -1 x97 = 0 ;
+1 x606 -1 x105 = 0 ;
+1 x607 -1 x114 = 0 ;
+1 x608 -1 x124 = 0 ;
+1 x609 -1 x135 = 0 ;
+1 x610 -1 x147 = 0 ;
+1 x611 -1 x159 = 0 ;
+1 x612 -1 x170 = 0 ;
+1 x613 -1 x180 = 0 ;
+1 x614 -1 x189 = 0 ;
+1 x615 -1 x89 = 0 ;
+1 x616 -1 x96 = 0 ;
+1 x617 -1 x104 = 0 ;
+1 x618 -1 x113 = 0 ;
+1 x619 -1 x123 = 0 ;
+1 x620 -1 x134 = 0 ;
+1 x621 -1 x146 = 0 ;
+1 x622 -1 x158 = 0 ;
+1 x623 -1 x169 = 0 ;
+1 x624 -1 x179 = 0 ;
+1 x625 -1 x188 = 0 ;
+1 x626 -1 x196 = 0 ;
+1 x627 -1 x95 = 0 ;
+1 x628 -1 x103 = 0 ;
+1 x629 -1 x112 = 0 ;
+1 x630 -1 x122 = 0 ;
+1 x631 -1 x133 = 0 ;
+1 x632 -1 x145 = 0 ;
+1 x633 -1 x157 = 0 ;
+1 x634 -1 x168 = 0 ;
+1 x635 -1 x178 = 0 ;
+1 x636 -1 x187 = 0 ;
+1 x637 -1 x195 = 0 ;
+1 x638 -1 x202 = 0 ;
+1 x639 -1 x102 = 0 ;
+1 x640 -1 x111 = 0 ;
+1 x641 -1 x121 = 0 ;
+1 x642 -1 x132 = 0 ;
+1 x643 -1 x144 = 0 ;
+1 x644 -1 x156 = 0 ;
+1 x645 -1 x167 = 0 ;
+1 x646 -1 x177 = 0 ;
+1 x647 -1 x186 = 0 ;
+1 x648 -1 x194 = 0 ;
+1 x649 -1 x201 = 0 ;
+1 x650 -1 x207 = 0 ;
+1 x651 -1 x110 = 0 ;
+1 x652 -1 x120 = 0 ;
+1 x653 -1 x131 = 0 ;
+1 x654 -1 x143 = 0 ;
+1 x655 -1 x155 = 0 ;
+1 x656 -1 x166 = 0 ;
+1 x657 -1 x176 = 0 ;
+1 x658 -1 x185 = 0 ;
+1 x659 -1 x193 = 0 ;
+1 x660 -1 x200 = 0 ;
+1 x661 -1 x206 = 0 ;
+1 x662 -1 x211 = 0 ;
+1 x663 -1 x119 = 0 ;
+1 x664 -1 x130 = 0 ;
+1 x665 -1 x142 = 0 ;
+1 x666 -1 x154 = 0 ;
+1 x667 -1 x165 = 0 ;
+1 x668 -1 x175 = 0 ;
+1 x669 -1 x184 = 0 ;
+1 x670 -1 x192 = 0 ;
+1 x671 -1 x199 = 0 ;
+1 x672 -1 x205 = 0 ;
+1 x673 -1 x210 = 0 ;
+1 x674 -1 x214 = 0 ;
+1 x675 -1 x129 = 0 ;
+1 x676 -1 x141 = 0 ;
+1 x677 -1 x153 = 0 ;
+1 x678 -1 x164 = 0 ;
+1 x679 -1 x174 = 0 ;
+1 x680 -1 x183 = 0 ;
+1 x681 -1 x191 = 0 ;
+1 x682 -1 x198 = 0 ;
+1 x683 -1 x204 = 0 ;
+1 x684 -1 x209 = 0 ;
+1 x685 -1 x213 = 0 ;
+1 x686 -1 x216 = 0 ;
+1 x687 -1 x140 = 0 ;
+1 x688 -1 x152 = 0 ;
+1 x689 -1 x163 = 0 ;
+1 x690 -1 x173 = 0 ;
+1 x691 -1 x182 = 0 ;
+1 x692 -1 x190 = 0 ;
+1 x693 -1 x197 = 0 ;
+1 x694 -1 x203 = 0 ;
+1 x695 -1 x208 = 0 ;
+1 x696 -1 x212 = 0 ;
+1 x697 -1 x215 = 0 ;
+1 x698 -1 x217 = 0 ;
+2 x699 +1 x1 -1 x511 -1 x723 = 0 ;
+2 x700 +1 x2 -1 x512 -1 x699 -1 x724 = 0 ;
+2 x701 +1 x3 -1 x513 -1 x700 -1 x725 = 0 ;
+2 x702 +1 x4 -1 x514 -1 x701 -1 x726 = 0 ;
+2 x703 +1 x5 -1 x515 -1 x702 -1 x727 = 0 ;
+2 x704 +1 x6 -1 x517 -1 x703 -1 x728 = 0 ;
+2 x705 +1 x7 -1 x519 -1 x704 -1 x516 = 0 ;
+2 x706 +1 x8 -1 x521 -1 x705 -1 x518 = 0 ;
+2 x707 +1 x9 -1 x523 -1 x706 -1 x520 = 0 ;
+2 x708 +1 x10 -1 x525 -1 x707 -1 x522 = 0 ;
+2 x709 +1 x11 -1 x527 -1 x708 -1 x524 = 0 ;
+2 x710 +1 x12 -1 x529 -1 x709 -1 x526 = 0 ;
+2 x711 +1 x13 -1 x531 -1 x710 -1 x528 = 0 ;
+2 x712 +1 x14 -1 x533 -1 x711 -1 x530 = 0 ;
+2 x713 +1 x15 -1 x535 -1 x712 -1 x532 = 0 ;
+2 x714 +1 x16 -1 x537 -1 x713 -1 x534 = 0 ;
+2 x715 +1 x17 -1 x539 -1 x714 -1 x536 = 0 ;
+2 x716 +1 x18 -1 x541 -1 x715 -1 x538 = 0 ;
+2 x717 +1 x19 -1 x543 -1 x716 -1 x540 = 0 ;
+2 x718 +1 x20 -1 x545 -1 x717 -1 x542 = 0 ;
+2 x719 +1 x21 -1 x547 -1 x718 -1 x544 = 0 ;
+2 x720 +1 x22 -1 x549 -1 x719 -1 x546 = 0 ;
+2 x721 +1 x23 -1 x551 -1 x720 -1 x548 = 0 ;
+2 x722 +1 x24 -1 x553 -1 x721 -1 x550 = 0 ;
+1 x722 -1 x25 = 0 ;
